3287156
23,89,108,21,57,101,90,63,9,66,78,79,47,3,84,15,5,94,102,29,55,73,14,16,61,18,105,35,27,67,68,69,85,30,38,37,36,10,76,48,40,74,71,25,46,95,52,53,99,104,98,72,17,87,64,11,59,12,20,54,75,49,6,7,13,56,26,88,96,103,41,32,39,77,107,92,86,70,22,8,65,0,34,44,28,60,31,50,58,80,42,83,45,93,62,43,19,33,100,4,97,81,82,106,51,1,24,2,91
